
  12    4
  10   10   10   10

   0   0   0   0   0   4 2 6 10 11 
   8  10  10  10  10   3 9 8 3 
   4  10  10  10  10   1 4 
   6  10  10  10  10   1 5 
   2  10  10  10  10   1 7 
   5  10  10  10  10   1 7 
  10  10  10  10  10   1 12
   6  10  10  10  10   1 12
   3  10  10  10  10   1 12
   4  10  10  10  10   1 12
   3  10  10  10  10   1 12
   0   0   0   0   0   0 
